Cs6 Pb3 Br12
1.0
   8.2849449047096346    0.0000000000000000    0.0000000000000005
   4.1424724523548191    7.1749727564329877    0.0000000000000005
   0.0000000000000000    0.0000000000000000   43.9700897211550199
Cs Pb Br
6 3 12
Selective dynamics
direct
   0.1071076913026587    0.1071076913026587    0.2949286026285681 T T T Cs
   0.7737743579693301    0.7737743579693230    0.3886483209742618 T T T Cs
   0.4404410246359944    0.4404410246359944    0.4680660589787027 T T T Cs
   0.1071076913026587    0.1071076913026587    0.5676693262397061 T T T Cs
   0.7737743579693301    0.7737743579693230    0.6470870642441401 T T T Cs
   0.4404410246359944    0.4404410246359944    0.7408067825898337 T T T Cs
   0.1071076913026587    0.1071076913026587    0.4119297415893805 T T T Pb
   0.7737743579693301    0.7737743579693230    0.5178676926092010 F F F Pb
   0.4404410246359944    0.4404410246359944    0.6238056436290216 T T T Pb
   0.2753815836909597    0.7705599065260710    0.3624874171368160 T T T Br
   0.7705599065260710    0.2753815836909526    0.3624874171368160 T T T Br
   0.2753815836909597    0.2753815836909526    0.3624874171368160 T T T Br
   0.9420725969296035    0.4371778800487759    0.4677093840739663 T T T Br
   0.4371778800487759    0.9420725969296035    0.4677093840739663 T T T Br
   0.9420725969296035    0.9420725969296035    0.4677093840739663 T T T Br
   0.6054761190090496    0.1103708358898773    0.5680260011444427 T T T Br
   0.1103708358898773    0.6054761190090496    0.5680260011444427 T T T Br
   0.6054761190090496    0.6054761190090496    0.5680260011444427 T T T Br
   0.2721671322477006    0.7769888094125822    0.6732479680815860 T T T Br
   0.7769888094125893    0.2721671322476935    0.6732479680815860 T T T Br
   0.2721671322477006    0.2721671322477006    0.6732479680815860 T T T Br
