Cs1 Pb1 Br3                             
   1.00000000000000     
     5.8583407238771175    0.0000000000000000    0.0000000000000004
    -0.0000000000000004    5.8583407238771175    0.0000000000000004
     0.0000000000000000    0.0000000000000000    5.8583407238771175
  Cs/             Pb/             Br/           
               1               1               3
Direct
  0.0000000000000000  0.0000000000000000  0.0000000000000000
  0.5000000000000000  0.5000000000000000  0.5000000000000000
  0.5000000000000000  0.5000000000000000  0.0000000000000000
  0.5000000000000000  0.0000000000000000  0.5000000000000000
  0.0000000000000000  0.5000000000000000  0.5000000000000000
 
  0.00000000E+00  0.00000000E+00  0.00000000E+00
  0.00000000E+00  0.00000000E+00  0.00000000E+00
  0.00000000E+00  0.00000000E+00  0.00000000E+00
  0.00000000E+00  0.00000000E+00  0.00000000E+00
  0.00000000E+00  0.00000000E+00  0.00000000E+00