Cs10 Pb8 Br26
1.0
   5.8583407238771175    0.0000000000000000    0.0000000000000004
   0.0000000000000013    8.2849449047096346    0.0000000000000005
   0.0000000000000000    0.0000000000000000   57.9946143329674513
Cs Pb Br
10 8 26
Selective dynamics
direct
  -0.0000000000000003   -1.3189044454751782    0.1884149207821683 T T T Cs
  -0.0000000000000004   -1.8189044454751782    0.2598434922107397 T T T Cs
  -0.0000000000000005   -2.3189044454751784    0.3312720636393111 F F F Cs
  -0.0000000000000006   -2.8189044454751784    0.4027006350678826 F F F Cs
  -0.0000000000000007   -3.3189044454751779    0.4741292064964539 F F F Cs
  -0.0000000000000008   -3.8189044454751775    0.5455577779250252 F F F Cs
  -0.0000000000000010   -4.3189044454751775    0.6169863493535966 F F F Cs
  -0.0000000000000011   -4.8189044454751784    0.6884149207821683 F F F Cs
  -0.0000000000000012   -5.3189044454751784    0.7598434922107397 T T T Cs
  -0.0000000000000013   -5.8189044454751784    0.8312720636393112 T T T Cs
   0.4999999999999997   -1.3189044454751782    0.2598434922107397 T T T Pb
   0.4999999999999996   -1.8189044454751782    0.3312720636393111 F F F Pb
   0.4999999999999994   -2.3189044454751779    0.4027006350678825 F F F Pb
   0.4999999999999993   -2.8189044454751779    0.4741292064964539 F F F Pb
   0.4999999999999992   -3.3189044454751775    0.5455577779250252 F F F Pb
   0.4999999999999991   -3.8189044454751770    0.6169863493535966 F F F Pb
   0.4999999999999990   -4.3189044454751784    0.6884149207821683 F F F Pb
   0.4999999999999989   -4.8189044454751784    0.7598434922107397 T T T Pb
   0.4999999999999997   -1.5689044454751782    0.2241292064964540 T T T Br
   0.4999999999999997   -1.0689044454751782    0.2241292064964540 T T T Br
  -0.0000000000000004   -1.3189044454751779    0.2598434922107397 T T T Br
   0.4999999999999996   -2.0689044454751779    0.2955577779250254 T T T Br
   0.4999999999999996   -1.5689044454751779    0.2955577779250254 T T T Br
  -0.0000000000000005   -1.8189044454751784    0.3312720636393112 F F F Br
   0.4999999999999994   -2.5689044454751779    0.3669863493535968 F F F Br
   0.4999999999999995   -2.0689044454751779    0.3669863493535968 F F F Br
  -0.0000000000000006   -2.3189044454751779    0.4027006350678825 F F F Br
   0.4999999999999993   -3.0689044454751779    0.4384149207821682 F F F Br
   0.4999999999999994   -2.5689044454751775    0.4384149207821681 F F F Br
  -0.0000000000000007   -2.8189044454751775    0.4741292064964539 F F F Br
   0.4999999999999992   -3.5689044454751788    0.5098434922107398 F F F Br
   0.4999999999999993   -3.0689044454751784    0.5098434922107398 F F F Br
  -0.0000000000000008   -3.3189044454751775    0.5455577779250252 F F F Br
   0.4999999999999991   -4.0689044454751784    0.5812720636393112 F F F Br
   0.4999999999999992   -3.5689044454751779    0.5812720636393111 F F F Br
  -0.0000000000000010   -3.8189044454751770    0.6169863493535966 F F F Br
   0.4999999999999990   -4.5689044454751784    0.6527006350678825 F F F Br
   0.4999999999999991   -4.0689044454751775    0.6527006350678825 F F F Br
  -0.0000000000000011   -4.3189044454751784    0.6884149207821683 F F F Br
   0.4999999999999989   -5.0689044454751784    0.7241292064964540 T T T Br
   0.4999999999999989   -4.5689044454751784    0.7241292064964540 T T T Br
  -0.0000000000000012   -4.8189044454751784    0.7598434922107397 T T T Br
   0.4999999999999988   -5.5689044454751802    0.7955577779250256 T T T Br
   0.4999999999999988   -5.0689044454751793    0.7955577779250256 T T T Br
