Cs2 Br2
1.0
   5.8583407238771175    0.0000000000000000    0.0000000000000004
  -0.0000000000000004    5.8583407238771175    0.0000000000000004
   0.0000000000000000    0.0000000000000000   23.7875110858156731
Cs Br
2 2
Selective dynamics
direct
   0.0000000000000000    0.0000000000000000    0.3152914978344328 F F F Cs
   0.0000000000000000    0.0000000000000000    0.6847085021655671 T T T Cs
   0.5000000000000000    0.5000000000000000    0.3152914978344328 T T T Br
   0.5000000000000000    0.5000000000000000    0.6847085021655671 T T T Br
